results_rootrelaxation/bin012_070_037.srr.sol
solution status: optimal solution found
objective value:                                  5.5
_var716_                                          0.5 	(obj:0)
_var758_                                          0.5 	(obj:0)
_var761_                                          0.5 	(obj:2)
_var767_                                          0.5 	(obj:1)
_var775_                                          0.5 	(obj:1)
_var779_                                          0.5 	(obj:0)
_var787_                                          0.5 	(obj:1)
_var818_                                          0.5 	(obj:0)
_var828_                                            1 	(obj:0)
_var835_                                          0.5 	(obj:0)
_var843_                                          0.5 	(obj:1)
_var847_                                            1 	(obj:0)
_var852_                                          0.5 	(obj:0)
_var855_                                          0.5 	(obj:0)
_var867_                                          0.5 	(obj:0)
_var881_                                          0.5 	(obj:1)
_var884_                                          0.5 	(obj:0)
_var893_                                          0.5 	(obj:2)
_var916_                                          0.5 	(obj:1)
_var928_                                          0.5 	(obj:1)
