results_rootrelaxation/bin012_070_037.srr.log
SCIP version 8.0.3.5 [precision: 8 byte] [memory: block] [mode: optimized] [LP solver: Soplex 6.0.1.3] [GitHash: 438792519e]
Copyright (c) 2002-2023 Zuse Institute Berlin (ZIB)

External libraries: 
  Readline 8.1         GNU library for command line editing (gnu.org/s/readline)
  Soplex 6.0.1.3       Linear Programming Solver developed at Zuse Institute Berlin (soplex.zib.de) [GitHash: 713be0fe]
  CppAD 20180000.0     Algorithmic Differentiation of C++ algorithms developed by B. Bell (github.com/coin-or/CppAD)
  ZLIB 1.2.11          General purpose compression library by J. Gailly and M. Adler (zlib.net)
  bliss 0.77           Computing Graph Automorphism Groups by T. Junttila and P. Kaski (www.tcs.hut.fi/Software/bliss/)

user parameter file <scip.set> not found - using default parameters

srr/relaxation = TRUE

read problem <instances/bin012_070_037.srr>
============

Original problem: 
original problem has 0 variables (0 bin, 0 int, 0 impl, 0 cont) and 77 constraints

presolving:
presolving (1 rounds: 1 fast, 1 medium, 1 exhaustive):
 0 deleted vars, 0 deleted constraints, 0 added constraints, 0 tightened bounds, 0 added holes, 0 changed sides, 0 changed coefficients
 0 implications, 0 cliques
presolved problem has 0 variables (0 bin, 0 int, 0 impl, 0 cont) and 77 constraints
     77 constraints of type <linear>
Presolving Time: 0.00

 time | node  | left  |LP iter|LP it/n|mem/heur|mdpt |vars |cons |rows |cuts |sepa|confs|strbr|  dualbound   | primalbound  |  gap   | compl. 
  0.0s|     1 |     0 |     1 |     - |   710k |   0 |   1 |  77 |  77 |   0 |  0 |   0 |   0 |      --      |      --      |    Inf | unknown
r 0.0s|     1 |     0 |   962 |     - |simplero|   0 | 692 |  77 |  77 |   0 |  0 |   0 |   0 |      --      | 2.757112e+01 |    Inf | unknown
r 0.1s|     1 |     0 |  1013 |     - |simplero|   0 | 703 |  77 |  77 |   0 |  0 |   0 |   0 |      --      | 2.601089e+01 |    Inf | unknown
r 0.1s|     1 |     0 |  1109 |     - |simplero|   0 | 714 |  77 |  77 |   0 |  0 |   0 |   0 |      --      | 2.240131e+01 |    Inf | unknown
r 0.1s|     1 |     0 |  1169 |     - |simplero|   0 | 725 |  77 |  77 |   0 |  0 |   0 |   0 |      --      | 2.109337e+01 |    Inf | unknown
r 0.1s|     1 |     0 |  1233 |     - |simplero|   0 | 736 |  77 |  77 |   0 |  0 |   0 |   0 |      --      | 1.884506e+01 |    Inf | unknown
r 0.1s|     1 |     0 |  1304 |     - |simplero|   0 | 747 |  77 |  77 |   0 |  0 |   0 |   0 |      --      | 1.713500e+01 |    Inf | unknown
r 0.1s|     1 |     0 |  1368 |     - |simplero|   0 | 758 |  77 |  77 |   0 |  0 |   0 |   0 |      --      | 1.560491e+01 |    Inf | unknown
r 0.1s|     1 |     0 |  1425 |     - |simplero|   0 | 769 |  77 |  77 |   0 |  0 |   0 |   0 |      --      | 1.349852e+01 |    Inf | unknown
r 0.1s|     1 |     0 |  1457 |     - |simplero|   0 | 780 |  77 |  77 |   0 |  0 |   0 |   0 |      --      | 1.251293e+01 |    Inf | unknown
r 0.1s|     1 |     0 |  1471 |     - |simplero|   0 | 780 |  77 |  77 |   0 |  0 |   0 |   0 |      --      | 1.239887e+01 |    Inf | unknown
r 0.1s|     1 |     0 |  1475 |     - |simplero|   0 | 780 |  77 |  77 |   0 |  0 |   0 |   0 |      --      | 1.239576e+01 |    Inf | unknown
r 0.1s|     1 |     0 |  1523 |     - |simplero|   0 | 791 |  77 |  77 |   0 |  0 |   0 |   0 |      --      | 1.141890e+01 |    Inf | unknown
r 0.1s|     1 |     0 |  1541 |     - |simplero|   0 | 791 |  77 |  77 |   0 |  0 |   0 |   0 |      --      | 1.134432e+01 |    Inf | unknown
r 0.1s|     1 |     0 |  1545 |     - |simplero|   0 | 791 |  77 |  77 |   0 |  0 |   0 |   0 |      --      | 1.132735e+01 |    Inf | unknown
 time | node  | left  |LP iter|LP it/n|mem/heur|mdpt |vars |cons |rows |cuts |sepa|confs|strbr|  dualbound   | primalbound  |  gap   | compl. 
r 0.1s|     1 |     0 |  1577 |     - |simplero|   0 | 802 |  77 |  77 |   0 |  0 |   0 |   0 |      --      | 1.051619e+01 |    Inf | unknown
r 0.1s|     1 |     0 |  1601 |     - |simplero|   0 | 802 |  77 |  77 |   0 |  0 |   0 |   0 |      --      | 1.029152e+01 |    Inf | unknown
r 0.1s|     1 |     0 |  1608 |     - |simplero|   0 | 802 |  77 |  77 |   0 |  0 |   0 |   0 |      --      | 1.027638e+01 |    Inf | unknown
r 0.1s|     1 |     0 |  1651 |     - |simplero|   0 | 813 |  77 |  77 |   0 |  0 |   0 |   0 |      --      | 9.512147e+00 |    Inf | unknown
r 0.1s|     1 |     0 |  1654 |     - |simplero|   0 | 813 |  77 |  77 |   0 |  0 |   0 |   0 |      --      | 9.502697e+00 |    Inf | unknown
r 0.1s|     1 |     0 |  1692 |     - |simplero|   0 | 824 |  77 |  77 |   0 |  0 |   0 |   0 |      --      | 8.936509e+00 |    Inf | unknown
r 0.1s|     1 |     0 |  1708 |     - |simplero|   0 | 824 |  77 |  77 |   0 |  0 |   0 |   0 |      --      | 8.922657e+00 |    Inf | unknown
r 0.1s|     1 |     0 |  1717 |     - |simplero|   0 | 824 |  77 |  77 |   0 |  0 |   0 |   0 |      --      | 8.909512e+00 |    Inf | unknown
r 0.1s|     1 |     0 |  1760 |     - |simplero|   0 | 835 |  77 |  77 |   0 |  0 |   0 |   0 |      --      | 8.319781e+00 |    Inf | unknown
r 0.1s|     1 |     0 |  1771 |     - |simplero|   0 | 835 |  77 |  77 |   0 |  0 |   0 |   0 |      --      | 8.304163e+00 |    Inf | unknown
r 0.1s|     1 |     0 |  1776 |     - |simplero|   0 | 835 |  77 |  77 |   0 |  0 |   0 |   0 |      --      | 8.299455e+00 |    Inf | unknown
r 0.1s|     1 |     0 |  1816 |     - |simplero|   0 | 846 |  77 |  77 |   0 |  0 |   0 |   0 |      --      | 7.730509e+00 |    Inf | unknown
r 0.1s|     1 |     0 |  1829 |     - |simplero|   0 | 846 |  77 |  77 |   0 |  0 |   0 |   0 |      --      | 7.693309e+00 |    Inf | unknown
r 0.1s|     1 |     0 |  1831 |     - |simplero|   0 | 846 |  77 |  77 |   0 |  0 |   0 |   0 |      --      | 7.691565e+00 |    Inf | unknown
r 0.1s|     1 |     0 |  1833 |     - |simplero|   0 | 846 |  77 |  77 |   0 |  0 |   0 |   0 |      --      | 7.690979e+00 |    Inf | unknown
 time | node  | left  |LP iter|LP it/n|mem/heur|mdpt |vars |cons |rows |cuts |sepa|confs|strbr|  dualbound   | primalbound  |  gap   | compl. 
r 0.1s|     1 |     0 |  1885 |     - |simplero|   0 | 857 |  77 |  77 |   0 |  0 |   0 |   0 |      --      | 6.736771e+00 |    Inf | unknown
  0.1s|     1 |     0 |  1906 |     - |  4140k |   0 | 857 |  77 |  77 |   0 |  0 |   0 |   0 |      --      | 6.736771e+00 |    Inf | unknown
r 0.1s|     1 |     0 |  1906 |     - |simplero|   0 | 857 |  77 |  77 |   0 |  0 |   0 |   0 |      --      | 6.674858e+00 |    Inf | unknown
r 0.1s|     1 |     0 |  1946 |     - |simplero|   0 | 868 |  77 |  77 |   0 |  0 |   0 |   0 |      --      | 6.413590e+00 |    Inf | unknown
r 0.1s|     1 |     0 |  1973 |     - |simplero|   0 | 868 |  77 |  77 |   0 |  0 |   0 |   0 |      --      | 6.343166e+00 |    Inf | unknown
r 0.1s|     1 |     0 |  1985 |     - |simplero|   0 | 868 |  77 |  77 |   0 |  0 |   0 |   0 |      --      | 6.315044e+00 |    Inf | unknown
r 0.1s|     1 |     0 |  2010 |     - |simplero|   0 | 879 |  77 |  77 |   0 |  0 |   0 |   0 |      --      | 6.159717e+00 |    Inf | unknown
r 0.1s|     1 |     0 |  2034 |     - |simplero|   0 | 890 |  77 |  77 |   0 |  0 |   0 |   0 |      --      | 5.891803e+00 |    Inf | unknown
r 0.1s|     1 |     0 |  2038 |     - |simplero|   0 | 890 |  77 |  77 |   0 |  0 |   0 |   0 |      --      | 5.888889e+00 |    Inf | unknown
r 0.1s|     1 |     0 |  2039 |     - |simplero|   0 | 890 |  77 |  77 |   0 |  0 |   0 |   0 |      --      | 5.888828e+00 |    Inf | unknown
r 0.1s|     1 |     0 |  2071 |     - |simplero|   0 | 901 |  77 |  77 |   0 |  0 |   0 |   0 |      --      | 5.717857e+00 |    Inf | unknown
r 0.1s|     1 |     0 |  2073 |     - |simplero|   0 | 901 |  77 |  77 |   0 |  0 |   0 |   0 |      --      | 5.714286e+00 |    Inf | unknown
r 0.1s|     1 |     0 |  2096 |     - |simplero|   0 | 910 |  77 |  77 |   0 |  0 |   0 |   0 |      --      | 5.632411e+00 |    Inf | unknown
r 0.1s|     1 |     0 |  2115 |     - |simplero|   0 | 918 |  77 |  77 |   0 |  0 |   0 |   0 |      --      | 5.549020e+00 |    Inf | unknown
r 0.1s|     1 |     0 |  2124 |     - |simplero|   0 | 924 |  77 |  77 |   0 |  0 |   0 |   0 |      --      | 5.547619e+00 |    Inf | unknown
 time | node  | left  |LP iter|LP it/n|mem/heur|mdpt |vars |cons |rows |cuts |sepa|confs|strbr|  dualbound   | primalbound  |  gap   | compl. 
r 0.1s|     1 |     0 |  2129 |     - |simplero|   0 | 924 |  77 |  77 |   0 |  0 |   0 |   0 |      --      | 5.544266e+00 |    Inf | unknown
r 0.1s|     1 |     0 |  2138 |     - |simplero|   0 | 929 |  77 |  77 |   0 |  0 |   0 |   0 |      --      | 5.500000e+00 |    Inf | unknown
  0.1s|     1 |     0 |  2167 |     - |  4358k |   0 | 939 |  77 |  77 |   0 |  0 |   0 |   0 | 5.500000e+00 | 5.500000e+00 |   0.00%| unknown
  0.1s|     1 |     0 |  2167 |     - |  4358k |   0 | 939 |  77 |  77 |   0 |  0 |   0 |   0 | 5.500000e+00 | 5.500000e+00 |   0.00%| unknown

SCIP Status        : problem is solved [optimal solution found]
Solving Time (sec) : 0.11
Solving Nodes      : 1
Primal Bound       : +5.50000000000000e+00 (45 solutions)
Dual Bound         : +5.50000000000000e+00
Gap                : 0.00 %

written transformed problem to file <results_rootrelaxation/bin012_070_037.srr.lp>
written transformed problem to file <results_rootrelaxation/bin012_070_037.srr.cip>

written solution information to file <results_rootrelaxation/bin012_070_037.srr.sol>



